(synth-fun condition ((do_display Int) (LOWFAT_GLOBAL_MS__readelf_get_data_423 Int)) Bool ((Start Int (-1 0 1 7 8 9 do_display LOWFAT_GLOBAL_MS__readelf_get_data_423)) (StartBool Bool ((< Start Start) (<= Start Start) (and StartBool StartBool) (or StartBool StartBool) (not StartBool) (= Start Start) (= StartBool StartBool)))))
(declare-var do_display Int)
(declare-var LOWFAT_GLOBAL_MS__readelf_get_data_423 Int)
(constraint (=> (condition do_display LOWFAT_GLOBAL_MS__readelf_get_data_423) (or (not (= 0 do_display)) (< 8 LOWFAT_GLOBAL_MS__readelf_get_data_423))))
(sketch condition (not (not (= 0 do_display))))